GeneratedTests/Random_9/Random_9_5.tsp
NAME: Random_9_5
TYPE: TSP
DIMENSION: 9
EDGE_WEIGHT_TYPE: EUC_2D
NODE_COORD_SECTION
1 2.6044679 12.065416
2 2.2902567 8.361198
3 15.042667 15.568646
4 22.782532 26.374504
5 13.278295 26.976095
6 16.720026 15.372213
7 13.11648 18.22143
8 5.360198 3.5151014
9 11.95849 0.47722614
EOF
