GeneratedTests/Random_9/Random_9_5.txt
NAME: Random_9_5
TYPE: TSP
DIMENSION: 9
EDGE_WEIGHT_TYPE: EUC_2D
NODE_COORD_SECTION
1 16.595936 6.4661055
2 6.2872787 3.877597
3 1.8948953 4.33041
4 19.0363 15.241948
5 12.026075 1.4845366
6 20.065071 1.7351425
7 3.7013116 20.820553
8 0.15923953 11.043699
9 20.166998 9.406333
EOF
